(set-info :smt-lib-version 2.6)
(set-logic UF)
(set-info :source |Benchmarks from the paper: "Extending Sledgehammer with SMT Solvers" by Jasmin Blanchette, Sascha Bohme, and Lawrence C. Paulson, CADE 2011.  Translated to SMT2 by Andrew Reynolds and Morgan Deters.|)
(set-info :category "industrial")
(set-info :status sat)
(declare-sort S1 0)
(declare-sort S2 0)
(declare-sort S3 0)
(declare-sort S4 0)
(declare-sort S5 0)
(declare-sort S6 0)
(declare-sort S7 0)
(declare-sort S8 0)
(declare-sort S9 0)
(declare-sort S10 0)
(declare-sort S11 0)
(declare-sort S12 0)
(declare-sort S13 0)
(declare-sort S14 0)
(declare-sort S15 0)
(declare-sort S16 0)
(declare-sort S17 0)
(declare-sort S18 0)
(declare-sort S19 0)
(declare-sort S20 0)
(declare-sort S21 0)
(declare-sort S22 0)
(declare-sort S23 0)
(declare-sort S24 0)
(declare-sort S25 0)
(declare-sort S26 0)
(declare-sort S27 0)
(declare-sort S28 0)
(declare-sort S29 0)
(declare-sort S30 0)
(declare-sort S31 0)
(declare-sort S32 0)
(declare-sort S33 0)
(declare-sort S34 0)
(declare-sort S35 0)
(declare-sort S36 0)
(declare-sort S37 0)
(declare-sort S38 0)
(declare-sort S39 0)
(declare-sort S40 0)
(declare-sort S41 0)
(declare-sort S42 0)
(declare-sort S43 0)
(declare-sort S44 0)
(declare-sort S45 0)
(declare-sort S46 0)
(declare-sort S47 0)
(declare-sort S48 0)
(declare-sort S49 0)
(declare-sort S50 0)
(declare-sort S51 0)
(declare-sort S52 0)
(declare-sort S53 0)
(declare-sort S54 0)
(declare-sort S55 0)
(declare-sort S56 0)
(declare-sort S57 0)
(declare-sort S58 0)
(declare-sort S59 0)
(declare-sort S60 0)
(declare-sort S61 0)
(declare-sort S62 0)
(declare-sort S63 0)
(declare-sort S64 0)
(declare-sort S65 0)
(declare-sort S66 0)
(declare-sort S67 0)
(declare-sort S68 0)
(declare-sort S69 0)
(declare-sort S70 0)
(declare-sort S71 0)
(declare-sort S72 0)
(declare-sort S73 0)
(declare-sort S74 0)
(declare-sort S75 0)
(declare-sort S76 0)
(declare-sort S77 0)
(declare-sort S78 0)
(declare-sort S79 0)
(declare-sort S80 0)
(declare-sort S81 0)
(declare-sort S82 0)
(declare-sort S83 0)
(declare-sort S84 0)
(declare-sort S85 0)
(declare-sort S86 0)
(declare-sort S87 0)
(declare-sort S88 0)
(declare-sort S89 0)
(declare-sort S90 0)
(declare-sort S91 0)
(declare-sort S92 0)
(declare-sort S93 0)
(declare-sort S94 0)
(declare-sort S95 0)
(declare-sort S96 0)
(declare-sort S97 0)
(declare-sort S98 0)
(declare-sort S99 0)
(declare-sort S100 0)
(declare-sort S101 0)
(declare-sort S102 0)
(declare-sort S103 0)
(declare-sort S104 0)
(declare-sort S105 0)
(declare-sort S106 0)
(declare-sort S107 0)
(declare-sort S108 0)
(declare-sort S109 0)
(declare-sort S110 0)
(declare-sort S111 0)
(declare-sort S112 0)
(declare-sort S113 0)
(declare-sort S114 0)
(declare-sort S115 0)
(declare-sort S116 0)
(declare-sort S117 0)
(declare-sort S118 0)
(declare-sort S119 0)
(declare-sort S120 0)
(declare-sort S121 0)
(declare-fun f1 () S1)
(declare-fun f2 () S1)
(declare-fun f3 (S4 S3) S1)
(declare-fun f4 (S5 S3) S4)
(declare-fun f5 (S2) S5)
(declare-fun f6 (S6 S2) S1)
(declare-fun f7 (S7 S3) S6)
(declare-fun f8 (S8 S3) S7)
(declare-fun f9 () S8)
(declare-fun f10 (S12 S11) S1)
(declare-fun f11 (S13 S10) S12)
(declare-fun f12 (S9) S13)
(declare-fun f13 (S14 S9) S1)
(declare-fun f14 (S15 S11) S14)
(declare-fun f15 (S16 S10) S15)
(declare-fun f16 () S16)
(declare-fun f17 (S20 S19) S1)
(declare-fun f18 (S21 S18) S20)
(declare-fun f19 (S17) S21)
(declare-fun f20 (S22 S17) S1)
(declare-fun f21 (S23 S19) S22)
(declare-fun f22 (S24 S18) S23)
(declare-fun f23 () S24)
(declare-fun f24 (S28 S27) S1)
(declare-fun f25 (S29 S26) S28)
(declare-fun f26 (S25) S29)
(declare-fun f27 (S30 S25) S1)
(declare-fun f28 (S31 S27) S30)
(declare-fun f29 (S32 S26) S31)
(declare-fun f30 () S32)
(declare-fun f31 (S34 S26) S20)
(declare-fun f32 (S33) S34)
(declare-fun f33 (S35 S33) S1)
(declare-fun f34 (S36 S19) S35)
(declare-fun f35 (S37 S26) S36)
(declare-fun f36 () S37)
(declare-fun f37 (S17 S22) S1)
(declare-fun f38 (S39 S38) S17)
(declare-fun f39 (S28) S39)
(declare-fun f40 (S27 S28) S1)
(declare-fun f41 (S40 S22) S27)
(declare-fun f42 (S41 S38) S40)
(declare-fun f43 () S41)
(declare-fun f44 (S43 S42) S1)
(declare-fun f45 (S44 S19) S43)
(declare-fun f46 (S4) S44)
(declare-fun f47 (S3 S4) S1)
(declare-fun f48 (S45 S42) S3)
(declare-fun f49 (S46 S19) S45)
(declare-fun f50 () S46)
(declare-fun f51 (S49 S48) S1)
(declare-fun f52 (S50 S47) S49)
(declare-fun f53 (S43) S50)
(declare-fun f54 (S42 S43) S1)
(declare-fun f55 (S51 S48) S42)
(declare-fun f56 (S52 S47) S51)
(declare-fun f57 () S52)
(declare-fun f58 (S19 S53) S1)
(declare-fun f59 (S54 S30) S19)
(declare-fun f60 () S54)
(declare-fun f61 (S55 S26) S26)
(declare-fun f62 (S56 S10) S55)
(declare-fun f63 () S56)
(declare-fun f64 () S10)
(declare-fun f65 () S26)
(declare-fun f66 (S57 S38) S38)
(declare-fun f67 (S58 S59) S57)
(declare-fun f68 () S58)
(declare-fun f69 (S60 S10) S59)
(declare-fun f70 () S60)
(declare-fun f71 () S10)
(declare-fun f72 () S38)
(declare-fun f73 (S61 S18) S18)
(declare-fun f74 (S62 S63) S61)
(declare-fun f75 () S62)
(declare-fun f76 (S64 S65) S63)
(declare-fun f77 () S64)
(declare-fun f78 () S65)
(declare-fun f79 () S18)
(declare-fun f80 () S19)
(declare-fun f81 (S66 S67) S53)
(declare-fun f82 () S66)
(declare-fun f83 (S48) S67)
(declare-fun f84 () S48)
(declare-fun f85 (S47 S65) S68)
(declare-fun f86 (S42) S47)
(declare-fun f87 () S47)
(declare-fun f88 (S14) S68)
(declare-fun f89 () S10)
(declare-fun f90 () S11)
(declare-fun f91 (S67 S10) S1)
(declare-fun f92 (S69 S35) S67)
(declare-fun f93 (S70 S59) S69)
(declare-fun f94 (S71 S38) S70)
(declare-fun f95 (S72 S10) S71)
(declare-fun f96 (S73 S10) S72)
(declare-fun f97 (S74) S73)
(declare-fun f98 () S74)
(declare-fun f99 () S10)
(declare-fun f100 () S59)
(declare-fun f101 (S75 S18) S65)
(declare-fun f102 () S75)
(declare-fun f103 (S76 S26) S65)
(declare-fun f104 () S76)
(declare-fun f105 (S77 S38) S65)
(declare-fun f106 () S77)
(declare-fun f107 (S78 S79) S19)
(declare-fun f108 (S80 S10) S78)
(declare-fun f109 (S81 S19) S80)
(declare-fun f110 () S81)
(declare-fun f111 (S82 S63) S19)
(declare-fun f112 () S82)
(declare-fun f113 (S83 S18) S79)
(declare-fun f114 (S84 S82) S83)
(declare-fun f115 () S84)
(declare-fun f116 (S48 S10) S85)
(declare-fun f117 (S63) S85)
(declare-fun f118 (S10 S67) S1)
(declare-fun f119 (S86 S6) S85)
(declare-fun f120 (S86) S2)
(declare-fun f121 (S87 S30) S68)
(declare-fun f122 (S87) S25)
(declare-fun f123 (S88 S27) S68)
(declare-fun f124 (S88) S28)
(declare-fun f125 (S89 S22) S68)
(declare-fun f126 (S89) S17)
(declare-fun f127 (S90 S42) S68)
(declare-fun f128 (S90) S43)
(declare-fun f129 (S91 S14) S68)
(declare-fun f130 (S91) S9)
(declare-fun f131 (S92 S35) S68)
(declare-fun f132 (S92) S33)
(declare-fun f133 (S93 S3) S68)
(declare-fun f134 (S93) S4)
(declare-fun f135 (S94 S10) S68)
(declare-fun f136 (S94) S67)
(declare-fun f137 (S95 S30) S53)
(declare-fun f138 (S95) S25)
(declare-fun f139 (S96 S27) S53)
(declare-fun f140 (S96) S28)
(declare-fun f141 (S97 S22) S53)
(declare-fun f142 (S97) S17)
(declare-fun f143 (S98 S42) S53)
(declare-fun f144 (S98) S43)
(declare-fun f145 (S99 S14) S53)
(declare-fun f146 (S99) S9)
(declare-fun f147 (S100 S35) S53)
(declare-fun f148 (S100) S33)
(declare-fun f149 (S101 S3) S53)
(declare-fun f150 (S101) S4)
(declare-fun f151 (S102 S10) S53)
(declare-fun f152 (S102) S67)
(declare-fun f153 (S2 S6) S1)
(declare-fun f154 (S25 S30) S1)
(declare-fun f155 (S33 S35) S1)
(declare-fun f156 (S9 S14) S1)
(declare-fun f157 (S74) S2)
(declare-fun f158 (S103 S42) S44)
(declare-fun f159 (S104 S19) S103)
(declare-fun f160 (S74) S104)
(declare-fun f161 (S105 S74) S1)
(declare-fun f162 () S105)
(declare-fun f163 (S106 S79) S65)
(declare-fun f164 () S106)
(declare-fun f165 (S108 S38) S79)
(declare-fun f166 (S109 S107) S108)
(declare-fun f167 () S109)
(declare-fun f168 (S111 S26) S79)
(declare-fun f169 (S112 S110) S111)
(declare-fun f170 () S112)
(declare-fun f171 (S114 S79) S38)
(declare-fun f172 (S115 S113) S114)
(declare-fun f173 () S115)
(declare-fun f174 (S117 S79) S26)
(declare-fun f175 (S118 S116) S117)
(declare-fun f176 () S118)
(declare-fun f177 (S120 S79) S18)
(declare-fun f178 (S121 S119) S120)
(declare-fun f179 () S121)
(assert (not (= f1 f2)))
(assert (forall ((?v0 S2) (?v1 S3) (?v2 S3)) (= (= (f3 (f4 (f5 ?v0) ?v1) ?v2) f1) (= (f6 (f7 (f8 f9 ?v1) ?v2) ?v0) f1))))
(assert (forall ((?v0 S9) (?v1 S10) (?v2 S11)) (= (= (f10 (f11 (f12 ?v0) ?v1) ?v2) f1) (= (f13 (f14 (f15 f16 ?v1) ?v2) ?v0) f1))))
(assert (forall ((?v0 S17) (?v1 S18) (?v2 S19)) (= (= (f17 (f18 (f19 ?v0) ?v1) ?v2) f1) (= (f20 (f21 (f22 f23 ?v1) ?v2) ?v0) f1))))
(assert (forall ((?v0 S25) (?v1 S26) (?v2 S27)) (= (= (f24 (f25 (f26 ?v0) ?v1) ?v2) f1) (= (f27 (f28 (f29 f30 ?v1) ?v2) ?v0) f1))))
(assert (forall ((?v0 S33) (?v1 S26) (?v2 S19)) (= (= (f17 (f31 (f32 ?v0) ?v1) ?v2) f1) (= (f33 (f34 (f35 f36 ?v1) ?v2) ?v0) f1))))
(assert (forall ((?v0 S28) (?v1 S38) (?v2 S22)) (= (= (f37 (f38 (f39 ?v0) ?v1) ?v2) f1) (= (f40 (f41 (f42 f43 ?v1) ?v2) ?v0) f1))))
(assert (forall ((?v0 S4) (?v1 S19) (?v2 S42)) (= (= (f44 (f45 (f46 ?v0) ?v1) ?v2) f1) (= (f47 (f48 (f49 f50 ?v1) ?v2) ?v0) f1))))
(assert (forall ((?v0 S43) (?v1 S47) (?v2 S48)) (= (= (f51 (f52 (f53 ?v0) ?v1) ?v2) f1) (= (f54 (f55 (f56 f57 ?v1) ?v2) ?v0) f1))))
(assert (not (= (f58 (f59 f60 (f28 (f29 f30 (f61 (f62 f63 f64) f65)) (f41 (f42 f43 (f66 (f67 f68 (f69 f70 f71)) f72)) (f21 (f22 f23 (f73 (f74 f75 (f76 f77 f78)) f79)) f80)))) (f81 f82 (f83 f84))) f1)))
(assert (= (f85 (f86 (f55 (f56 f57 f87) f84)) f78) (f88 (f14 (f15 f16 f89) f90))))
(assert (= (f91 (f92 (f93 (f94 (f95 (f96 (f97 f98) f89) f99) f72) f100) (f34 (f35 f36 f65) f80)) f71) f1))
(assert (= (f101 f102 f79) (f103 f104 f65)))
(assert (= (f105 f106 f72) (f103 f104 f65)))
(assert (= (f58 (f107 (f108 (f109 f110 (f111 f112 (f76 f77 f78))) f99) (f113 (f114 f115 f112) f79)) (f81 f82 (f83 f84))) f1))
(assert (= (f105 f106 f72) (f103 f104 f65)))
(assert (= (f101 f102 f79) (f103 f104 f65)))
(assert (= (f85 (f86 (f55 (f56 f57 f87) f84)) f78) (f88 (f14 (f15 f16 f89) f90))))
(assert (= (f91 (f92 (f93 (f94 (f95 (f96 (f97 f98) f89) f99) f72) f100) (f34 (f35 f36 f65) f80)) f71) f1))
(assert (= (f58 (f107 (f108 (f109 f110 (f111 f112 (f76 f77 f78))) f99) (f113 (f114 f115 f112) f79)) (f81 f82 (f83 f84))) f1))
(assert (forall ((?v0 S48) (?v1 S10) (?v2 S63)) (=> (= (f116 ?v0 ?v1) (f117 ?v2)) (= (f118 ?v1 (f83 ?v0)) f1))))
(assert (forall ((?v0 S86) (?v1 S6) (?v2 S63)) (=> (= (f119 ?v0 ?v1) (f117 ?v2)) (= (f6 ?v1 (f120 ?v0)) f1))))
(assert (forall ((?v0 S87) (?v1 S30) (?v2 S14)) (=> (= (f121 ?v0 ?v1) (f88 ?v2)) (= (f27 ?v1 (f122 ?v0)) f1))))
(assert (forall ((?v0 S88) (?v1 S27) (?v2 S14)) (=> (= (f123 ?v0 ?v1) (f88 ?v2)) (= (f40 ?v1 (f124 ?v0)) f1))))
(assert (forall ((?v0 S89) (?v1 S22) (?v2 S14)) (=> (= (f125 ?v0 ?v1) (f88 ?v2)) (= (f20 ?v1 (f126 ?v0)) f1))))
(assert (forall ((?v0 S90) (?v1 S42) (?v2 S14)) (=> (= (f127 ?v0 ?v1) (f88 ?v2)) (= (f54 ?v1 (f128 ?v0)) f1))))
(assert (forall ((?v0 S91) (?v1 S14) (?v2 S14)) (=> (= (f129 ?v0 ?v1) (f88 ?v2)) (= (f13 ?v1 (f130 ?v0)) f1))))
(assert (forall ((?v0 S92) (?v1 S35) (?v2 S14)) (=> (= (f131 ?v0 ?v1) (f88 ?v2)) (= (f33 ?v1 (f132 ?v0)) f1))))
(assert (forall ((?v0 S93) (?v1 S3) (?v2 S14)) (=> (= (f133 ?v0 ?v1) (f88 ?v2)) (= (f47 ?v1 (f134 ?v0)) f1))))
(assert (forall ((?v0 S94) (?v1 S10) (?v2 S14)) (=> (= (f135 ?v0 ?v1) (f88 ?v2)) (= (f118 ?v1 (f136 ?v0)) f1))))
(assert (forall ((?v0 S95) (?v1 S30) (?v2 S67)) (=> (= (f137 ?v0 ?v1) (f81 f82 ?v2)) (= (f27 ?v1 (f138 ?v0)) f1))))
(assert (forall ((?v0 S96) (?v1 S27) (?v2 S67)) (=> (= (f139 ?v0 ?v1) (f81 f82 ?v2)) (= (f40 ?v1 (f140 ?v0)) f1))))
(assert (forall ((?v0 S97) (?v1 S22) (?v2 S67)) (=> (= (f141 ?v0 ?v1) (f81 f82 ?v2)) (= (f20 ?v1 (f142 ?v0)) f1))))
(assert (forall ((?v0 S98) (?v1 S42) (?v2 S67)) (=> (= (f143 ?v0 ?v1) (f81 f82 ?v2)) (= (f54 ?v1 (f144 ?v0)) f1))))
(assert (forall ((?v0 S99) (?v1 S14) (?v2 S67)) (=> (= (f145 ?v0 ?v1) (f81 f82 ?v2)) (= (f13 ?v1 (f146 ?v0)) f1))))
(assert (forall ((?v0 S100) (?v1 S35) (?v2 S67)) (=> (= (f147 ?v0 ?v1) (f81 f82 ?v2)) (= (f33 ?v1 (f148 ?v0)) f1))))
(assert (forall ((?v0 S101) (?v1 S3) (?v2 S67)) (=> (= (f149 ?v0 ?v1) (f81 f82 ?v2)) (= (f47 ?v1 (f150 ?v0)) f1))))
(assert (forall ((?v0 S102) (?v1 S10) (?v2 S67)) (=> (= (f151 ?v0 ?v1) (f81 f82 ?v2)) (= (f118 ?v1 (f152 ?v0)) f1))))
(assert (forall ((?v0 S2) (?v1 S6)) (=> (forall ((?v2 S3) (?v3 S19) (?v4 S47) (?v5 S48)) (= (f153 ?v0 (f7 (f8 f9 ?v2) (f48 (f49 f50 ?v3) (f55 (f56 f57 ?v4) ?v5)))) f1)) (= (f153 ?v0 ?v1) f1))))
(assert (forall ((?v0 S25) (?v1 S30)) (=> (forall ((?v2 S26) (?v3 S38) (?v4 S18) (?v5 S19)) (= (f154 ?v0 (f28 (f29 f30 ?v2) (f41 (f42 f43 ?v3) (f21 (f22 f23 ?v4) ?v5)))) f1)) (= (f154 ?v0 ?v1) f1))))
(assert (forall ((?v0 S6)) (=> (forall ((?v1 S3) (?v2 S19) (?v3 S47) (?v4 S48)) (=> (= ?v0 (f7 (f8 f9 ?v1) (f48 (f49 f50 ?v2) (f55 (f56 f57 ?v3) ?v4)))) false)) false)))
(assert (forall ((?v0 S30)) (=> (forall ((?v1 S26) (?v2 S38) (?v3 S18) (?v4 S19)) (=> (= ?v0 (f28 (f29 f30 ?v1) (f41 (f42 f43 ?v2) (f21 (f22 f23 ?v3) ?v4)))) false)) false)))
(assert (forall ((?v0 S2) (?v1 S2)) (= (= (f5 ?v0) (f5 ?v1)) (= ?v0 ?v1))))
(assert (forall ((?v0 S4) (?v1 S4)) (= (= (f46 ?v0) (f46 ?v1)) (= ?v0 ?v1))))
(assert (forall ((?v0 S33) (?v1 S33)) (= (= (f32 ?v0) (f32 ?v1)) (= ?v0 ?v1))))
(assert (forall ((?v0 S9) (?v1 S9)) (= (= (f12 ?v0) (f12 ?v1)) (= ?v0 ?v1))))
(assert (forall ((?v0 S43) (?v1 S43)) (= (= (f53 ?v0) (f53 ?v1)) (= ?v0 ?v1))))
(assert (forall ((?v0 S17) (?v1 S17)) (= (= (f19 ?v0) (f19 ?v1)) (= ?v0 ?v1))))
(assert (forall ((?v0 S28) (?v1 S28)) (= (= (f39 ?v0) (f39 ?v1)) (= ?v0 ?v1))))
(assert (forall ((?v0 S25) (?v1 S25)) (= (= (f26 ?v0) (f26 ?v1)) (= ?v0 ?v1))))
(assert (forall ((?v0 S10) (?v1 S10)) (= (= (f69 f70 ?v0) (f69 f70 ?v1)) (= ?v0 ?v1))))
(assert (forall ((?v0 S65) (?v1 S65)) (= (= (f76 f77 ?v0) (f76 f77 ?v1)) (= ?v0 ?v1))))
(assert (forall ((?v0 S10) (?v1 S48)) (=> (= (f118 ?v0 (f83 ?v1)) f1) (exists ((?v2 S63)) (= (f116 ?v1 ?v0) (f117 ?v2))))))
(assert (forall ((?v0 S6) (?v1 S86)) (=> (= (f6 ?v0 (f120 ?v1)) f1) (exists ((?v2 S63)) (= (f119 ?v1 ?v0) (f117 ?v2))))))
(assert (forall ((?v0 S30) (?v1 S87)) (=> (= (f27 ?v0 (f122 ?v1)) f1) (exists ((?v2 S14)) (= (f121 ?v1 ?v0) (f88 ?v2))))))
(assert (forall ((?v0 S27) (?v1 S88)) (=> (= (f40 ?v0 (f124 ?v1)) f1) (exists ((?v2 S14)) (= (f123 ?v1 ?v0) (f88 ?v2))))))
(assert (forall ((?v0 S22) (?v1 S89)) (=> (= (f20 ?v0 (f126 ?v1)) f1) (exists ((?v2 S14)) (= (f125 ?v1 ?v0) (f88 ?v2))))))
(assert (forall ((?v0 S42) (?v1 S90)) (=> (= (f54 ?v0 (f128 ?v1)) f1) (exists ((?v2 S14)) (= (f127 ?v1 ?v0) (f88 ?v2))))))
(assert (forall ((?v0 S14) (?v1 S91)) (=> (= (f13 ?v0 (f130 ?v1)) f1) (exists ((?v2 S14)) (= (f129 ?v1 ?v0) (f88 ?v2))))))
(assert (forall ((?v0 S35) (?v1 S92)) (=> (= (f33 ?v0 (f132 ?v1)) f1) (exists ((?v2 S14)) (= (f131 ?v1 ?v0) (f88 ?v2))))))
(assert (forall ((?v0 S3) (?v1 S93)) (=> (= (f47 ?v0 (f134 ?v1)) f1) (exists ((?v2 S14)) (= (f133 ?v1 ?v0) (f88 ?v2))))))
(assert (forall ((?v0 S10) (?v1 S94)) (=> (= (f118 ?v0 (f136 ?v1)) f1) (exists ((?v2 S14)) (= (f135 ?v1 ?v0) (f88 ?v2))))))
(assert (forall ((?v0 S30) (?v1 S95)) (=> (= (f27 ?v0 (f138 ?v1)) f1) (exists ((?v2 S67)) (= (f137 ?v1 ?v0) (f81 f82 ?v2))))))
(assert (forall ((?v0 S27) (?v1 S96)) (=> (= (f40 ?v0 (f140 ?v1)) f1) (exists ((?v2 S67)) (= (f139 ?v1 ?v0) (f81 f82 ?v2))))))
(assert (forall ((?v0 S22) (?v1 S97)) (=> (= (f20 ?v0 (f142 ?v1)) f1) (exists ((?v2 S67)) (= (f141 ?v1 ?v0) (f81 f82 ?v2))))))
(assert (forall ((?v0 S42) (?v1 S98)) (=> (= (f54 ?v0 (f144 ?v1)) f1) (exists ((?v2 S67)) (= (f143 ?v1 ?v0) (f81 f82 ?v2))))))
(assert (forall ((?v0 S14) (?v1 S99)) (=> (= (f13 ?v0 (f146 ?v1)) f1) (exists ((?v2 S67)) (= (f145 ?v1 ?v0) (f81 f82 ?v2))))))
(assert (forall ((?v0 S35) (?v1 S100)) (=> (= (f33 ?v0 (f148 ?v1)) f1) (exists ((?v2 S67)) (= (f147 ?v1 ?v0) (f81 f82 ?v2))))))
(assert (forall ((?v0 S3) (?v1 S101)) (=> (= (f47 ?v0 (f150 ?v1)) f1) (exists ((?v2 S67)) (= (f149 ?v1 ?v0) (f81 f82 ?v2))))))
(assert (forall ((?v0 S10) (?v1 S102)) (=> (= (f118 ?v0 (f152 ?v1)) f1) (exists ((?v2 S67)) (= (f151 ?v1 ?v0) (f81 f82 ?v2))))))
(assert (forall ((?v0 S19) (?v1 S42) (?v2 S19) (?v3 S42)) (=> (= (f48 (f49 f50 ?v0) ?v1) (f48 (f49 f50 ?v2) ?v3)) (=> (=> (= ?v0 ?v2) (=> (= ?v1 ?v3) false)) false))))
(assert (forall ((?v0 S3) (?v1 S3) (?v2 S3) (?v3 S3)) (=> (= (f7 (f8 f9 ?v0) ?v1) (f7 (f8 f9 ?v2) ?v3)) (=> (=> (= ?v0 ?v2) (=> (= ?v1 ?v3) false)) false))))
(assert (forall ((?v0 S26) (?v1 S19) (?v2 S26) (?v3 S19)) (=> (= (f34 (f35 f36 ?v0) ?v1) (f34 (f35 f36 ?v2) ?v3)) (=> (=> (= ?v0 ?v2) (=> (= ?v1 ?v3) false)) false))))
(assert (forall ((?v0 S10) (?v1 S11) (?v2 S10) (?v3 S11)) (=> (= (f14 (f15 f16 ?v0) ?v1) (f14 (f15 f16 ?v2) ?v3)) (=> (=> (= ?v0 ?v2) (=> (= ?v1 ?v3) false)) false))))
(assert (forall ((?v0 S47) (?v1 S48) (?v2 S47) (?v3 S48)) (=> (= (f55 (f56 f57 ?v0) ?v1) (f55 (f56 f57 ?v2) ?v3)) (=> (=> (= ?v0 ?v2) (=> (= ?v1 ?v3) false)) false))))
(assert (forall ((?v0 S18) (?v1 S19) (?v2 S18) (?v3 S19)) (=> (= (f21 (f22 f23 ?v0) ?v1) (f21 (f22 f23 ?v2) ?v3)) (=> (=> (= ?v0 ?v2) (=> (= ?v1 ?v3) false)) false))))
(assert (forall ((?v0 S38) (?v1 S22) (?v2 S38) (?v3 S22)) (=> (= (f41 (f42 f43 ?v0) ?v1) (f41 (f42 f43 ?v2) ?v3)) (=> (=> (= ?v0 ?v2) (=> (= ?v1 ?v3) false)) false))))
(assert (forall ((?v0 S26) (?v1 S27) (?v2 S26) (?v3 S27)) (=> (= (f28 (f29 f30 ?v0) ?v1) (f28 (f29 f30 ?v2) ?v3)) (=> (=> (= ?v0 ?v2) (=> (= ?v1 ?v3) false)) false))))
(assert (forall ((?v0 S19) (?v1 S42) (?v2 S19) (?v3 S42)) (= (= (f48 (f49 f50 ?v0) ?v1) (f48 (f49 f50 ?v2) ?v3)) (and (= ?v0 ?v2) (= ?v1 ?v3)))))
(assert (forall ((?v0 S3) (?v1 S3) (?v2 S3) (?v3 S3)) (= (= (f7 (f8 f9 ?v0) ?v1) (f7 (f8 f9 ?v2) ?v3)) (and (= ?v0 ?v2) (= ?v1 ?v3)))))
(assert (forall ((?v0 S26) (?v1 S19) (?v2 S26) (?v3 S19)) (= (= (f34 (f35 f36 ?v0) ?v1) (f34 (f35 f36 ?v2) ?v3)) (and (= ?v0 ?v2) (= ?v1 ?v3)))))
(assert (forall ((?v0 S10) (?v1 S11) (?v2 S10) (?v3 S11)) (= (= (f14 (f15 f16 ?v0) ?v1) (f14 (f15 f16 ?v2) ?v3)) (and (= ?v0 ?v2) (= ?v1 ?v3)))))
(assert (forall ((?v0 S47) (?v1 S48) (?v2 S47) (?v3 S48)) (= (= (f55 (f56 f57 ?v0) ?v1) (f55 (f56 f57 ?v2) ?v3)) (and (= ?v0 ?v2) (= ?v1 ?v3)))))
(assert (forall ((?v0 S18) (?v1 S19) (?v2 S18) (?v3 S19)) (= (= (f21 (f22 f23 ?v0) ?v1) (f21 (f22 f23 ?v2) ?v3)) (and (= ?v0 ?v2) (= ?v1 ?v3)))))
(assert (forall ((?v0 S38) (?v1 S22) (?v2 S38) (?v3 S22)) (= (= (f41 (f42 f43 ?v0) ?v1) (f41 (f42 f43 ?v2) ?v3)) (and (= ?v0 ?v2) (= ?v1 ?v3)))))
(assert (forall ((?v0 S26) (?v1 S27) (?v2 S26) (?v3 S27)) (= (= (f28 (f29 f30 ?v0) ?v1) (f28 (f29 f30 ?v2) ?v3)) (and (= ?v0 ?v2) (= ?v1 ?v3)))))
(assert (forall ((?v0 S4)) (= (forall ((?v1 S3)) (= (f3 ?v0 ?v1) f1)) (forall ((?v1 S19) (?v2 S42)) (= (f3 ?v0 (f48 (f49 f50 ?v1) ?v2)) f1)))))
(assert (forall ((?v0 S2)) (= (forall ((?v1 S6)) (= (f153 ?v0 ?v1) f1)) (forall ((?v1 S3) (?v2 S3)) (= (f153 ?v0 (f7 (f8 f9 ?v1) ?v2)) f1)))))
(assert (forall ((?v0 S33)) (= (forall ((?v1 S35)) (= (f155 ?v0 ?v1) f1)) (forall ((?v1 S26) (?v2 S19)) (= (f155 ?v0 (f34 (f35 f36 ?v1) ?v2)) f1)))))
(assert (forall ((?v0 S9)) (= (forall ((?v1 S14)) (= (f156 ?v0 ?v1) f1)) (forall ((?v1 S10) (?v2 S11)) (= (f156 ?v0 (f14 (f15 f16 ?v1) ?v2)) f1)))))
(assert (forall ((?v0 S43)) (= (forall ((?v1 S42)) (= (f44 ?v0 ?v1) f1)) (forall ((?v1 S47) (?v2 S48)) (= (f44 ?v0 (f55 (f56 f57 ?v1) ?v2)) f1)))))
(assert (forall ((?v0 S17)) (= (forall ((?v1 S22)) (= (f37 ?v0 ?v1) f1)) (forall ((?v1 S18) (?v2 S19)) (= (f37 ?v0 (f21 (f22 f23 ?v1) ?v2)) f1)))))
(assert (forall ((?v0 S28)) (= (forall ((?v1 S27)) (= (f24 ?v0 ?v1) f1)) (forall ((?v1 S38) (?v2 S22)) (= (f24 ?v0 (f41 (f42 f43 ?v1) ?v2)) f1)))))
(assert (forall ((?v0 S25)) (= (forall ((?v1 S30)) (= (f154 ?v0 ?v1) f1)) (forall ((?v1 S26) (?v2 S27)) (= (f154 ?v0 (f28 (f29 f30 ?v1) ?v2)) f1)))))
(assert (forall ((?v0 S42) (?v1 S65) (?v2 S10) (?v3 S11) (?v4 S74) (?v5 S10) (?v6 S38) (?v7 S59) (?v8 S26) (?v9 S19) (?v10 S10) (?v11 S18)) (let ((?v_0 (f103 f104 ?v8)) (?v_1 (f76 f77 ?v1))) (=> (= (f85 (f86 ?v0) ?v1) (f88 (f14 (f15 f16 ?v2) ?v3))) (=> (= (f91 (f92 (f93 (f94 (f95 (f96 (f97 ?v4) ?v2) ?v5) ?v6) ?v7) (f34 (f35 f36 ?v8) ?v9)) ?v10) f1) (=> (= (f101 f102 ?v11) ?v_0) (=> (= (f105 f106 ?v6) ?v_0) (= (f6 (f7 (f8 f9 (f48 (f49 f50 (f107 (f108 (f109 f110 (f111 f112 ?v_1)) ?v5) (f113 (f114 f115 f112) ?v11))) ?v0)) (f48 (f49 f50 (f59 f60 (f28 (f29 f30 (f61 (f62 f63 f64) ?v8)) (f41 (f42 f43 (f66 (f67 f68 (f69 f70 ?v10)) ?v6)) (f21 (f22 f23 (f73 (f74 f75 ?v_1) ?v11)) ?v9))))) ?v0)) (f157 ?v4)) f1))))))))
(assert (forall ((?v0 S42) (?v1 S65) (?v2 S10) (?v3 S11) (?v4 S74) (?v5 S10) (?v6 S38) (?v7 S59) (?v8 S26) (?v9 S19) (?v10 S10) (?v11 S18)) (let ((?v_0 (f103 f104 ?v8)) (?v_1 (f76 f77 ?v1))) (=> (= (f85 (f86 ?v0) ?v1) (f88 (f14 (f15 f16 ?v2) ?v3))) (=> (= (f91 (f92 (f93 (f94 (f95 (f96 (f97 ?v4) ?v2) ?v5) ?v6) ?v7) (f34 (f35 f36 ?v8) ?v9)) ?v10) f1) (=> (= (f101 f102 ?v11) ?v_0) (=> (= (f105 f106 ?v6) ?v_0) (= (f44 (f45 (f158 (f159 (f160 ?v4) (f107 (f108 (f109 f110 (f111 f112 ?v_1)) ?v5) (f113 (f114 f115 f112) ?v11))) ?v0) (f59 f60 (f28 (f29 f30 (f61 (f62 f63 f64) ?v8)) (f41 (f42 f43 (f66 (f67 f68 (f69 f70 ?v10)) ?v6)) (f21 (f22 f23 (f73 (f74 f75 ?v_1) ?v11)) ?v9))))) ?v0) f1))))))))
(assert (= (f161 f162 f98) f1))
(assert (forall ((?v0 S3)) (=> (forall ((?v1 S19) (?v2 S47) (?v3 S48)) (=> (= ?v0 (f48 (f49 f50 ?v1) (f55 (f56 f57 ?v2) ?v3))) false)) false)))
(assert (forall ((?v0 S6)) (=> (forall ((?v1 S3) (?v2 S19) (?v3 S42)) (=> (= ?v0 (f7 (f8 f9 ?v1) (f48 (f49 f50 ?v2) ?v3))) false)) false)))
(assert (forall ((?v0 S27)) (=> (forall ((?v1 S38) (?v2 S18) (?v3 S19)) (=> (= ?v0 (f41 (f42 f43 ?v1) (f21 (f22 f23 ?v2) ?v3))) false)) false)))
(assert (forall ((?v0 S30)) (=> (forall ((?v1 S26) (?v2 S38) (?v3 S22)) (=> (= ?v0 (f28 (f29 f30 ?v1) (f41 (f42 f43 ?v2) ?v3))) false)) false)))
(assert (forall ((?v0 S4) (?v1 S3)) (=> (forall ((?v2 S19) (?v3 S47) (?v4 S48)) (= (f3 ?v0 (f48 (f49 f50 ?v2) (f55 (f56 f57 ?v3) ?v4))) f1)) (= (f3 ?v0 ?v1) f1))))
(assert (forall ((?v0 S2) (?v1 S6)) (=> (forall ((?v2 S3) (?v3 S19) (?v4 S42)) (= (f153 ?v0 (f7 (f8 f9 ?v2) (f48 (f49 f50 ?v3) ?v4))) f1)) (= (f153 ?v0 ?v1) f1))))
(assert (forall ((?v0 S28) (?v1 S27)) (=> (forall ((?v2 S38) (?v3 S18) (?v4 S19)) (= (f24 ?v0 (f41 (f42 f43 ?v2) (f21 (f22 f23 ?v3) ?v4))) f1)) (= (f24 ?v0 ?v1) f1))))
(assert (forall ((?v0 S25) (?v1 S30)) (=> (forall ((?v2 S26) (?v3 S38) (?v4 S22)) (= (f154 ?v0 (f28 (f29 f30 ?v2) (f41 (f42 f43 ?v3) ?v4))) f1)) (= (f154 ?v0 ?v1) f1))))
(assert (forall ((?v0 S63) (?v1 S53)) (= (= (f58 (f111 f112 ?v0) ?v1) f1) true)))
(assert (forall ((?v0 S63) (?v1 S19) (?v2 S10) (?v3 S79)) (not (= (f111 f112 ?v0) (f107 (f108 (f109 f110 ?v1) ?v2) ?v3)))))
(assert (forall ((?v0 S19) (?v1 S10) (?v2 S79) (?v3 S63)) (not (= (f107 (f108 (f109 f110 ?v0) ?v1) ?v2) (f111 f112 ?v3)))))
(assert (forall ((?v0 S82) (?v1 S18)) (= (f163 f164 (f113 (f114 f115 ?v0) ?v1)) (f101 f102 ?v1))))
(assert (forall ((?v0 S107) (?v1 S38)) (= (f163 f164 (f165 (f166 f167 ?v0) ?v1)) (f105 f106 ?v1))))
(assert (forall ((?v0 S110) (?v1 S26)) (= (f163 f164 (f168 (f169 f170 ?v0) ?v1)) (f103 f104 ?v1))))
(assert (forall ((?v0 S113) (?v1 S79)) (= (f105 f106 (f171 (f172 f173 ?v0) ?v1)) (f163 f164 ?v1))))
(assert (forall ((?v0 S116) (?v1 S79)) (= (f103 f104 (f174 (f175 f176 ?v0) ?v1)) (f163 f164 ?v1))))
(assert (forall ((?v0 S119) (?v1 S79)) (= (f101 f102 (f177 (f178 f179 ?v0) ?v1)) (f163 f164 ?v1))))
(assert (forall ((?v0 S74) (?v1 S19) (?v2 S42) (?v3 S19) (?v4 S42)) (= (= (f44 (f45 (f158 (f159 (f160 ?v0) ?v1) ?v2) ?v3) ?v4) f1) (= (f6 (f7 (f8 f9 (f48 (f49 f50 ?v1) ?v2)) (f48 (f49 f50 ?v3) ?v4)) (f157 ?v0)) f1))))
(assert (forall ((?v0 S74) (?v1 S19) (?v2 S42) (?v3 S19) (?v4 S42) (?v5 S10) (?v6 S79)) (let ((?v_0 (f160 ?v0))) (=> (= (f44 (f45 (f158 (f159 ?v_0 ?v1) ?v2) ?v3) ?v4) f1) (= (f44 (f45 (f158 (f159 ?v_0 (f107 (f108 (f109 f110 ?v1) ?v5) ?v6)) ?v2) (f107 (f108 (f109 f110 ?v3) ?v5) ?v6)) ?v4) f1)))))
(check-sat)
(exit)
